c Reduced graph for 5-FullIns_4 generated by Cyril Grelier
p edge 43 294
e 1 10
e 1 11
e 1 12
e 1 13
e 1 14
e 1 15
e 1 16
e 1 25
e 1 26
e 1 27
e 1 28
e 1 29
e 1 30
e 1 31
e 1 32
e 1 33
e 1 34
e 1 35
e 1 36
e 1 37
e 1 38
e 1 39
e 1 40
e 1 41
e 1 42
e 1 43
e 2 3
e 2 4
e 2 5
e 2 6
e 2 7
e 2 8
e 2 11
e 2 12
e 2 13
e 2 14
e 2 15
e 2 16
e 2 19
e 2 20
e 2 21
e 2 22
e 2 23
e 2 24
e 2 32
e 2 33
e 2 34
e 2 35
e 2 36
e 2 37
e 3 4
e 3 5
e 3 6
e 3 7
e 3 8
e 3 10
e 3 12
e 3 13
e 3 14
e 3 15
e 3 16
e 3 18
e 3 20
e 3 21
e 3 22
e 3 23
e 3 24
e 3 31
e 3 33
e 3 34
e 3 35
e 3 36
e 3 37
e 4 5
e 4 6
e 4 7
e 4 8
e 4 10
e 4 11
e 4 13
e 4 14
e 4 15
e 4 16
e 4 18
e 4 19
e 4 21
e 4 22
e 4 23
e 4 24
e 4 31
e 4 32
e 4 34
e 4 35
e 4 36
e 4 37
e 5 6
e 5 7
e 5 8
e 5 10
e 5 11
e 5 12
e 5 14
e 5 15
e 5 16
e 5 18
e 5 19
e 5 20
e 5 22
e 5 23
e 5 24
e 5 31
e 5 32
e 5 33
e 5 35
e 5 36
e 5 37
e 6 7
e 6 8
e 6 10
e 6 11
e 6 12
e 6 13
e 6 15
e 6 16
e 6 18
e 6 19
e 6 20
e 6 21
e 6 23
e 6 24
e 6 31
e 6 32
e 6 33
e 6 34
e 6 36
e 6 37
e 7 8
e 7 10
e 7 11
e 7 12
e 7 13
e 7 14
e 7 16
e 7 18
e 7 19
e 7 20
e 7 21
e 7 22
e 7 24
e 7 31
e 7 32
e 7 33
e 7 34
e 7 35
e 7 37
e 8 10
e 8 11
e 8 12
e 8 13
e 8 14
e 8 15
e 8 18
e 8 19
e 8 20
e 8 21
e 8 22
e 8 23
e 8 31
e 8 32
e 8 33
e 8 34
e 8 35
e 8 36
e 9 17
e 9 18
e 9 19
e 9 20
e 9 21
e 9 22
e 9 23
e 9 24
e 9 31
e 9 32
e 9 33
e 9 34
e 9 35
e 9 36
e 9 37
e 9 38
e 9 39
e 9 40
e 9 41
e 9 42
e 9 43
e 10 17
e 10 19
e 10 20
e 10 21
e 10 22
e 10 23
e 10 24
e 11 17
e 11 18
e 11 20
e 11 21
e 11 22
e 11 23
e 11 24
e 12 17
e 12 18
e 12 19
e 12 21
e 12 22
e 12 23
e 12 24
e 13 17
e 13 18
e 13 19
e 13 20
e 13 22
e 13 23
e 13 24
e 14 17
e 14 18
e 14 19
e 14 20
e 14 21
e 14 23
e 14 24
e 15 17
e 15 18
e 15 19
e 15 20
e 15 21
e 15 22
e 15 24
e 16 17
e 16 18
e 16 19
e 16 20
e 16 21
e 16 22
e 16 23
e 17 25
e 17 26
e 17 27
e 17 28
e 17 29
e 17 30
e 25 26
e 25 27
e 25 28
e 25 29
e 25 30
e 25 39
e 25 40
e 25 41
e 25 42
e 25 43
e 26 27
e 26 28
e 26 29
e 26 30
e 26 38
e 26 40
e 26 41
e 26 42
e 26 43
e 27 28
e 27 29
e 27 30
e 27 38
e 27 39
e 27 41
e 27 42
e 27 43
e 28 29
e 28 30
e 28 38
e 28 39
e 28 40
e 28 42
e 28 43
e 29 30
e 29 38
e 29 39
e 29 40
e 29 41
e 29 43
e 30 38
e 30 39
e 30 40
e 30 41
e 30 42
